(set-logic ALL)
(declare-fun seed0_T_1 () Bool)
(declare-fun seed0_T_2 () Bool)
(declare-fun seed0_var_0xINPUT_119190 () String)
(assert (and (or (= seed0_T_1 (not (= "" seed0_var_0xINPUT_119190))) (str.contains (str.++ seed0_var_0xINPUT_119190 "kvgM2p7YZiKxG0BXQot") (str.++ seed0_var_0xINPUT_119190 "xOcqTo"))) (or seed0_T_1 (or (str.< (str.++ seed0_var_0xINPUT_119190 "34qGcvyIpeVFQSgB0JC") (str.++ seed0_var_0xINPUT_119190 "xwyteMHiFb")) (str.contains (str.++ seed0_var_0xINPUT_119190 "Su7") (str.++ seed0_var_0xINPUT_119190 "HGdi")))) (or (= seed0_T_2 (= "-" seed0_var_0xINPUT_119190)) (or (str.< (str.++ seed0_var_0xINPUT_119190 "EeU") (str.++ seed0_var_0xINPUT_119190 "D9zOy")) (str.contains (str.++ seed0_var_0xINPUT_119190 "C1T3srogMU5YpD0b") (str.++ seed0_var_0xINPUT_119190 "9Efn42hoC")))) (or seed0_T_2 (or (str.< (str.++ seed0_var_0xINPUT_119190 "WIod0") (str.++ seed0_var_0xINPUT_119190 "9wdFj5hRYVpkSeCoWs")) (str.contains (str.++ seed0_var_0xINPUT_119190 "cxrHOFP0uWaCN") (str.++ seed0_var_0xINPUT_119190 "FQCyJZ73H8"))))))
(check-sat)
(exit)